c File:  zeroin.i.1.col
c
c SOURCE: Gary Lewandowski (gary@cs.wisc.edu)
c
c DESCRIPTION: Coloring problem generated from a register allocation
c              problem based on real code.
c
c graph #1 from register allocation file zeroin.i
p edge 211 4100
e 2 1
e 3 1
e 3 2
e 4 1
e 4 2
e 4 3
e 5 1
e 5 2
e 5 3
e 5 4
e 6 1
e 6 2
e 6 3
e 6 4
e 6 5
e 7 1
e 7 2
e 7 3
e 7 4
e 7 5
e 7 6
e 8 1
e 8 2
e 8 3
e 8 4
e 8 5
e 8 6
e 8 7
e 9 1
e 9 2
e 9 3
e 9 4
e 9 5
e 9 6
e 9 7
e 9 8
e 10 1
e 10 2
e 10 3
e 10 4
e 10 5
e 10 6
e 10 7
e 10 8
e 10 9
e 11 1
e 11 2
e 11 3
e 11 4
e 11 5
e 11 6
e 11 7
e 11 8
e 11 9
e 11 10
e 12 1
e 12 2
e 12 3
e 12 4
e 12 5
e 12 6
e 12 7
e 12 8
e 12 9
e 12 10
e 12 11
e 13 1
e 13 2
e 13 3
e 13 4
e 13 5
e 13 6
e 13 7
e 13 8
e 13 9
e 13 10
e 13 11
e 13 12
e 14 1
e 14 2
e 14 3
e 14 4
e 14 5
e 14 6
e 14 7
e 14 8
e 14 9
e 14 10
e 14 11
e 14 12
e 14 13
e 15 1
e 15 2
e 15 3
e 15 4
e 15 5
e 15 6
e 15 7
e 15 8
e 15 9
e 15 10
e 15 11
e 15 12
e 15 13
e 15 14
e 16 1
e 16 2
e 16 3
e 16 4
e 16 5
e 16 6
e 16 7
e 16 8
e 16 9
e 16 10
e 16 11
e 16 12
e 16 13
e 16 14
e 16 15
e 18 17
e 19 17
e 19 18
e 20 17
e 20 18
e 20 19
e 21 17
e 21 18
e 21 19
e 21 20
e 22 17
e 22 18
e 22 19
e 22 20
e 22 21
e 23 17
e 23 18
e 23 19
e 23 20
e 23 21
e 23 22
e 24 17
e 24 18
e 24 19
e 24 20
e 24 21
e 24 22
e 24 23
e 25 17
e 25 18
e 25 19
e 25 20
e 25 21
e 25 22
e 25 23
e 25 24
e 26 17
e 26 18
e 26 19
e 26 20
e 26 21
e 26 22
e 26 23
e 26 24
e 26 25
e 27 17
e 27 18
e 27 19
e 27 20
e 27 21
e 27 22
e 27 23
e 27 24
e 27 25
e 27 26
e 28 17
e 28 18
e 28 19
e 28 20
e 28 21
e 28 22
e 28 23
e 28 24
e 28 25
e 28 26
e 28 27
e 29 17
e 29 18
e 29 19
e 29 20
e 29 21
e 29 22
e 29 23
e 29 24
e 29 25
e 29 26
e 29 27
e 29 28
e 30 17
e 30 18
e 30 19
e 30 20
e 30 21
e 30 22
e 30 23
e 30 24
e 30 25
e 30 26
e 30 27
e 30 28
e 30 29
e 31 17
e 31 18
e 31 19
e 31 20
e 31 21
e 31 22
e 31 23
e 31 24
e 31 25
e 31 26
e 31 27
e 31 28
e 31 29
e 31 30
e 32 17
e 32 18
e 32 19
e 32 20
e 32 21
e 32 22
e 32 23
e 32 24
e 32 25
e 32 26
e 32 27
e 32 28
e 32 29
e 32 30
e 32 31
e 33 1
e 33 2
e 33 3
e 33 4
e 33 5
e 33 6
e 33 7
e 33 8
e 33 9
e 33 10
e 33 11
e 33 12
e 33 13
e 33 14
e 33 15
e 33 16
e 33 17
e 33 27
e 33 28
e 33 29
e 33 30
e 33 31
e 33 32
e 36 1
e 36 2
e 36 3
e 36 4
e 36 5
e 36 6
e 36 7
e 36 8
e 36 9
e 36 10
e 36 11
e 36 12
e 36 13
e 36 14
e 36 15
e 36 16
e 36 17
e 36 27
e 36 28
e 36 29
e 36 30
e 36 31
e 36 32
e 36 33
e 41 1
e 41 2
e 41 3
e 41 4
e 41 5
e 41 6
e 41 7
e 41 8
e 41 9
e 41 10
e 41 11
e 41 12
e 41 13
e 41 14
e 41 15
e 41 16
e 41 17
e 41 27
e 41 28
e 41 29
e 41 30
e 41 31
e 41 32
e 41 33
e 41 36
e 43 1
e 43 2
e 43 3
e 43 4
e 43 5
e 43 6
e 43 7
e 43 8
e 43 9
e 43 10
e 43 11
e 43 12
e 43 13
e 43 14
e 43 15
e 43 16
e 43 17
e 43 27
e 43 28
e 43 29
e 43 30
e 43 31
e 43 32
e 43 33
e 43 36
e 43 41
e 45 1
e 45 2
e 45 3
e 45 4
e 45 5
e 45 6
e 45 7
e 45 8
e 45 9
e 45 10
e 45 11
e 45 12
e 45 13
e 45 14
e 45 15
e 45 16
e 45 17
e 45 27
e 45 28
e 45 29
e 45 30
e 45 31
e 45 32
e 45 33
e 45 36
e 45 41
e 45 43
e 47 1
e 47 2
e 47 3
e 47 4
e 47 5
e 47 6
e 47 7
e 47 8
e 47 9
e 47 10
e 47 11
e 47 12
e 47 13
e 47 14
e 47 15
e 47 16
e 47 17
e 47 27
e 47 28
e 47 29
e 47 30
e 47 31
e 47 32
e 47 33
e 47 36
e 48 1
e 48 2
e 48 3
e 48 4
e 48 5
e 48 6
e 48 7
e 48 8
e 48 9
e 48 10
e 48 11
e 48 12
e 48 13
e 48 14
e 48 15
e 48 16
e 48 17
e 48 27
e 48 28
e 48 29
e 48 30
e 48 31
e 48 32
e 48 33
e 48 36
e 48 41
e 48 43
e 48 45
e 48 47
e 51 1
e 51 2
e 51 3
e 51 4
e 51 5
e 51 6
e 51 7
e 51 8
e 51 9
e 51 10
e 51 11
e 51 12
e 51 13
e 51 14
e 51 15
e 51 16
e 51 17
e 51 27
e 51 33
e 51 36
e 51 41
e 51 43
e 51 45
e 51 47
e 51 48
e 54 1
e 54 2
e 54 3
e 54 4
e 54 5
e 54 6
e 54 7
e 54 8
e 54 9
e 54 10
e 54 11
e 54 12
e 54 13
e 54 14
e 54 15
e 54 16
e 54 17
e 54 27
e 54 28
e 54 29
e 54 30
e 54 31
e 54 32
e 54 33
e 54 36
e 54 41
e 54 43
e 54 45
e 54 48
e 54 51
e 56 1
e 56 2
e 56 3
e 56 4
e 56 5
e 56 6
e 56 7
e 56 8
e 56 9
e 56 10
e 56 11
e 56 12
e 56 13
e 56 14
e 56 15
e 56 16
e 56 17
e 56 27
e 56 36
e 56 41
e 56 43
e 56 45
e 56 51
e 56 54
e 57 1
e 57 2
e 57 3
e 57 4
e 57 5
e 57 6
e 57 7
e 57 8
e 57 9
e 57 10
e 57 11
e 57 12
e 57 13
e 57 14
e 57 15
e 57 16
e 57 17
e 57 27
e 57 36
e 57 41
e 57 43
e 57 45
e 57 51
e 57 54
e 57 56
e 59 1
e 59 2
e 59 3
e 59 4
e 59 5
e 59 6
e 59 7
e 59 8
e 59 9
e 59 10
e 59 11
e 59 12
e 59 13
e 59 14
e 59 15
e 59 16
e 59 17
e 59 27
e 59 28
e 59 29
e 59 30
e 59 31
e 59 32
e 59 33
e 59 36
e 59 41
e 59 43
e 59 45
e 59 48
e 59 51
e 59 54
e 59 56
e 59 57
e 60 1
e 60 2
e 60 3
e 60 4
e 60 5
e 60 6
e 60 7
e 60 8
e 60 9
e 60 10
e 60 11
e 60 12
e 60 13
e 60 14
e 60 15
e 60 16
e 60 17
e 60 27
e 60 33
e 60 36
e 60 41
e 60 43
e 60 45
e 60 48
e 60 51
e 60 54
e 61 1
e 61 2
e 61 3
e 61 4
e 61 5
e 61 6
e 61 7
e 61 8
e 61 9
e 61 10
e 61 11
e 61 12
e 61 13
e 61 14
e 61 15
e 61 16
e 61 17
e 61 27
e 61 33
e 61 36
e 61 41
e 61 43
e 61 45
e 61 48
e 61 51
e 61 54
e 61 60
e 62 1
e 62 2
e 62 3
e 62 4
e 62 5
e 62 6
e 62 7
e 62 8
e 62 9
e 62 10
e 62 11
e 62 12
e 62 13
e 62 14
e 62 15
e 62 16
e 62 17
e 62 27
e 62 33
e 62 36
e 62 41
e 62 43
e 62 45
e 62 48
e 62 51
e 62 54
e 62 56
e 62 57
e 62 59
e 62 61
e 63 1
e 63 2
e 63 3
e 63 5
e 63 6
e 63 7
e 63 8
e 63 9
e 63 10
e 63 11
e 63 12
e 63 13
e 63 14
e 63 15
e 63 16
e 63 17
e 63 18
e 63 19
e 63 20
e 63 21
e 63 22
e 63 23
e 63 24
e 63 25
e 63 26
e 63 27
e 63 28
e 63 29
e 63 30
e 63 31
e 63 32
e 64 1
e 64 2
e 64 3
e 64 6
e 64 7
e 64 8
e 64 9
e 64 10
e 64 11
e 64 12
e 64 13
e 64 14
e 64 15
e 64 16
e 64 17
e 64 18
e 64 19
e 64 20
e 64 21
e 64 22
e 64 23
e 64 24
e 64 25
e 64 26
e 64 27
e 64 28
e 64 29
e 64 30
e 64 31
e 64 32
e 64 63
e 65 1
e 65 2
e 65 3
e 65 7
e 65 8
e 65 9
e 65 10
e 65 11
e 65 12
e 65 13
e 65 14
e 65 15
e 65 16
e 65 17
e 65 18
e 65 19
e 65 20
e 65 21
e 65 22
e 65 23
e 65 24
e 65 25
e 65 26
e 65 27
e 65 28
e 65 29
e 65 30
e 65 31
e 65 32
e 65 63
e 65 64
e 66 1
e 66 2
e 66 3
e 66 8
e 66 9
e 66 10
e 66 11
e 66 12
e 66 13
e 66 14
e 66 15
e 66 16
e 66 17
e 66 18
e 66 19
e 66 20
e 66 21
e 66 22
e 66 23
e 66 24
e 66 25
e 66 26
e 66 27
e 66 28
e 66 29
e 66 30
e 66 31
e 66 32
e 66 63
e 66 64
e 66 65
e 67 1
e 67 2
e 67 3
e 67 9
e 67 10
e 67 11
e 67 12
e 67 13
e 67 14
e 67 15
e 67 16
e 67 17
e 67 18
e 67 19
e 67 20
e 67 21
e 67 22
e 67 23
e 67 24
e 67 25
e 67 26
e 67 27
e 67 28
e 67 29
e 67 30
e 67 31
e 67 32
e 67 63
e 67 64
e 67 65
e 67 66
e 68 1
e 68 2
e 68 3
e 68 10
e 68 11
e 68 12
e 68 13
e 68 14
e 68 15
e 68 16
e 68 17
e 68 18
e 68 19
e 68 20
e 68 21
e 68 22
e 68 23
e 68 24
e 68 25
e 68 26
e 68 27
e 68 28
e 68 29
e 68 30
e 68 31
e 68 32
e 68 63
e 68 64
e 68 65
e 68 66
e 68 67
e 69 1
e 69 2
e 69 3
e 69 11
e 69 12
e 69 13
e 69 14
e 69 15
e 69 16
e 69 17
e 69 18
e 69 19
e 69 20
e 69 21
e 69 22
e 69 23
e 69 24
e 69 25
e 69 26
e 69 27
e 69 28
e 69 29
e 69 30
e 69 31
e 69 32
e 69 63
e 69 64
e 69 65
e 69 66
e 69 67
e 69 68
e 70 1
e 70 2
e 70 3
e 70 11
e 70 12
e 70 13
e 70 14
e 70 15
e 70 16
e 70 17
e 70 18
e 70 19
e 70 20
e 70 21
e 70 22
e 70 23
e 70 24
e 70 25
e 70 26
e 70 27
e 70 28
e 70 29
e 70 30
e 70 31
e 70 32
e 70 63
e 70 64
e 70 65
e 70 66
e 70 67
e 70 68
e 70 69
e 71 1
e 71 2
e 71 3
e 71 4
e 71 5
e 71 6
e 71 7
e 71 8
e 71 9
e 71 10
e 71 11
e 71 12
e 71 13
e 71 14
e 71 15
e 71 16
e 71 17
e 71 19
e 71 20
e 71 21
e 71 22
e 71 23
e 71 24
e 71 25
e 71 26
e 71 27
e 71 28
e 71 29
e 71 30
e 71 31
e 71 32
e 71 33
e 71 36
e 71 41
e 71 43
e 71 45
e 71 47
e 71 48
e 71 51
e 71 54
e 71 56
e 71 57
e 71 59
e 71 60
e 71 61
e 71 62
e 72 1
e 72 2
e 72 3
e 72 4
e 72 5
e 72 6
e 72 7
e 72 8
e 72 9
e 72 10
e 72 11
e 72 12
e 72 13
e 72 14
e 72 15
e 72 16
e 72 17
e 72 20
e 72 21
e 72 22
e 72 23
e 72 24
e 72 25
e 72 26
e 72 27
e 72 28
e 72 29
e 72 30
e 72 31
e 72 32
e 72 33
e 72 36
e 72 41
e 72 43
e 72 45
e 72 47
e 72 48
e 72 51
e 72 54
e 72 56
e 72 57
e 72 59
e 72 60
e 72 61
e 72 62
e 72 71
e 73 1
e 73 2
e 73 3
e 73 4
e 73 5
e 73 6
e 73 7
e 73 8
e 73 9
e 73 10
e 73 11
e 73 12
e 73 13
e 73 14
e 73 15
e 73 16
e 73 17
e 73 21
e 73 22
e 73 23
e 73 24
e 73 25
e 73 26
e 73 27
e 73 28
e 73 29
e 73 30
e 73 31
e 73 32
e 73 33
e 73 36
e 73 41
e 73 43
e 73 45
e 73 47
e 73 48
e 73 51
e 73 54
e 73 56
e 73 57
e 73 59
e 73 60
e 73 61
e 73 62
e 73 71
e 73 72
e 74 1
e 74 2
e 74 3
e 74 4
e 74 5
e 74 6
e 74 7
e 74 8
e 74 9
e 74 10
e 74 11
e 74 12
e 74 13
e 74 14
e 74 15
e 74 16
e 74 17
e 74 22
e 74 23
e 74 24
e 74 25
e 74 26
e 74 27
e 74 28
e 74 29
e 74 30
e 74 31
e 74 32
e 74 33
e 74 36
e 74 41
e 74 43
e 74 45
e 74 47
e 74 48
e 74 51
e 74 54
e 74 56
e 74 57
e 74 59
e 74 60
e 74 61
e 74 62
e 74 71
e 74 72
e 74 73
e 75 1
e 75 2
e 75 3
e 75 4
e 75 5
e 75 6
e 75 7
e 75 8
e 75 9
e 75 10
e 75 11
e 75 12
e 75 13
e 75 14
e 75 15
e 75 16
e 75 17
e 75 23
e 75 24
e 75 25
e 75 26
e 75 27
e 75 28
e 75 29
e 75 30
e 75 31
e 75 32
e 75 33
e 75 36
e 75 41
e 75 43
e 75 45
e 75 47
e 75 48
e 75 51
e 75 54
e 75 56
e 75 57
e 75 59
e 75 60
e 75 61
e 75 62
e 75 71
e 75 72
e 75 73
e 75 74
e 76 1
e 76 2
e 76 3
e 76 4
e 76 5
e 76 6
e 76 7
e 76 8
e 76 9
e 76 10
e 76 11
e 76 12
e 76 13
e 76 14
e 76 15
e 76 16
e 76 17
e 76 24
e 76 25
e 76 26
e 76 27
e 76 28
e 76 29
e 76 30
e 76 31
e 76 32
e 76 33
e 76 36
e 76 41
e 76 43
e 76 45
e 76 47
e 76 48
e 76 51
e 76 54
e 76 56
e 76 57
e 76 59
e 76 60
e 76 61
e 76 62
e 76 71
e 76 72
e 76 73
e 76 74
e 76 75
e 77 1
e 77 2
e 77 3
e 77 4
e 77 5
e 77 6
e 77 7
e 77 8
e 77 9
e 77 10
e 77 11
e 77 12
e 77 13
e 77 14
e 77 15
e 77 16
e 77 17
e 77 25
e 77 26
e 77 27
e 77 28
e 77 29
e 77 30
e 77 31
e 77 32
e 77 33
e 77 36
e 77 41
e 77 43
e 77 45
e 77 47
e 77 48
e 77 51
e 77 54
e 77 56
e 77 57
e 77 59
e 77 60
e 77 61
e 77 62
e 77 71
e 77 72
e 77 73
e 77 74
e 77 75
e 77 76
e 78 1
e 78 2
e 78 3
e 78 4
e 78 5
e 78 6
e 78 7
e 78 8
e 78 9
e 78 10
e 78 11
e 78 12
e 78 13
e 78 14
e 78 15
e 78 16
e 78 17
e 78 26
e 78 27
e 78 28
e 78 29
e 78 30
e 78 31
e 78 32
e 78 33
e 78 36
e 78 41
e 78 43
e 78 45
e 78 47
e 78 48
e 78 51
e 78 54
e 78 56
e 78 57
e 78 59
e 78 60
e 78 61
e 78 62
e 78 71
e 78 72
e 78 73
e 78 74
e 78 75
e 78 76
e 78 77
e 79 1
e 79 2
e 79 3
e 79 4
e 79 5
e 79 6
e 79 7
e 79 8
e 79 9
e 79 10
e 79 11
e 79 12
e 79 13
e 79 14
e 79 15
e 79 16
e 79 17
e 79 27
e 79 28
e 79 29
e 79 30
e 79 31
e 79 32
e 79 33
e 79 36
e 79 41
e 79 43
e 79 45
e 79 47
e 79 48
e 79 51
e 79 54
e 79 56
e 79 57
e 79 59
e 79 60
e 79 61
e 79 62
e 79 71
e 79 72
e 79 73
e 79 74
e 79 75
e 79 76
e 79 77
e 79 78
e 80 1
e 80 2
e 80 3
e 80 11
e 80 12
e 80 13
e 80 14
e 80 15
e 80 16
e 80 17
e 80 18
e 80 19
e 80 20
e 80 21
e 80 22
e 80 23
e 80 24
e 80 25
e 80 26
e 80 27
e 80 28
e 80 29
e 80 30
e 80 31
e 80 32
e 80 63
e 80 64
e 80 65
e 80 66
e 80 67
e 80 68
e 80 69
e 80 70
e 81 1
e 81 2
e 81 3
e 81 4
e 81 5
e 81 6
e 81 7
e 81 8
e 81 9
e 81 10
e 81 11
e 81 12
e 81 13
e 81 14
e 81 15
e 81 16
e 81 17
e 81 27
e 81 28
e 81 29
e 81 30
e 81 31
e 81 32
e 81 33
e 81 36
e 81 41
e 81 43
e 81 45
e 81 47
e 81 48
e 81 51
e 81 54
e 81 56
e 81 57
e 81 59
e 81 60
e 81 61
e 81 62
e 81 71
e 81 72
e 81 73
e 81 74
e 81 75
e 81 76
e 81 77
e 81 78
e 81 79
e 83 1
e 83 2
e 83 3
e 83 11
e 83 12
e 83 13
e 83 14
e 83 15
e 83 16
e 83 17
e 83 18
e 83 19
e 83 20
e 83 21
e 83 22
e 83 23
e 83 24
e 83 25
e 83 26
e 83 27
e 83 28
e 83 29
e 83 30
e 83 31
e 83 32
e 83 63
e 83 64
e 83 65
e 83 66
e 83 67
e 83 68
e 83 69
e 83 70
e 83 80
e 84 1
e 84 2
e 84 3
e 84 4
e 84 5
e 84 6
e 84 7
e 84 8
e 84 9
e 84 10
e 84 11
e 84 12
e 84 13
e 84 14
e 84 15
e 84 16
e 84 17
e 84 27
e 84 28
e 84 29
e 84 30
e 84 31
e 84 32
e 84 33
e 84 36
e 84 41
e 84 43
e 84 45
e 84 47
e 84 48
e 84 51
e 84 54
e 84 56
e 84 57
e 84 59
e 84 60
e 84 61
e 84 62
e 84 71
e 84 72
e 84 73
e 84 74
e 84 75
e 84 76
e 84 77
e 84 78
e 84 79
e 84 81
e 86 1
e 86 2
e 86 3
e 86 11
e 86 12
e 86 13
e 86 14
e 86 15
e 86 16
e 86 17
e 86 18
e 86 19
e 86 20
e 86 21
e 86 22
e 86 23
e 86 24
e 86 25
e 86 26
e 86 27
e 86 28
e 86 29
e 86 30
e 86 31
e 86 32
e 86 63
e 86 64
e 86 65
e 86 66
e 86 67
e 86 68
e 86 69
e 86 70
e 86 80
e 86 83
e 87 1
e 87 2
e 87 3
e 87 11
e 87 12
e 87 13
e 87 14
e 87 15
e 87 16
e 87 17
e 87 18
e 87 19
e 87 20
e 87 21
e 87 22
e 87 23
e 87 24
e 87 25
e 87 26
e 87 27
e 87 28
e 87 29
e 87 30
e 87 31
e 87 32
e 87 63
e 87 64
e 87 65
e 87 66
e 87 67
e 87 68
e 87 69
e 87 70
e 87 80
e 87 83
e 87 86
e 88 1
e 88 2
e 88 3
e 88 4
e 88 5
e 88 6
e 88 7
e 88 8
e 88 9
e 88 10
e 88 11
e 88 12
e 88 13
e 88 14
e 88 15
e 88 16
e 88 17
e 88 27
e 88 28
e 88 29
e 88 30
e 88 31
e 88 32
e 88 33
e 88 36
e 88 41
e 88 43
e 88 45
e 88 47
e 88 48
e 88 51
e 88 54
e 88 56
e 88 57
e 88 59
e 88 60
e 88 61
e 88 62
e 88 71
e 88 72
e 88 73
e 88 74
e 88 75
e 88 76
e 88 77
e 88 78
e 88 79
e 88 81
e 88 84
e 90 1
e 90 2
e 90 3
e 90 4
e 90 5
e 90 6
e 90 7
e 90 8
e 90 9
e 90 10
e 90 11
e 90 12
e 90 13
e 90 14
e 90 15
e 90 16
e 90 17
e 90 27
e 90 28
e 90 29
e 90 30
e 90 31
e 90 32
e 90 33
e 90 36
e 90 41
e 90 43
e 90 45
e 90 47
e 90 48
e 90 51
e 90 54
e 90 56
e 90 57
e 90 59
e 90 60
e 90 61
e 90 62
e 90 71
e 90 72
e 90 73
e 90 74
e 90 75
e 90 76
e 90 77
e 90 78
e 90 79
e 90 81
e 90 84
e 90 88
e 92 1
e 92 2
e 92 3
e 92 4
e 92 5
e 92 6
e 92 7
e 92 8
e 92 9
e 92 10
e 92 11
e 92 12
e 92 13
e 92 14
e 92 15
e 92 16
e 92 17
e 92 27
e 92 28
e 92 29
e 92 30
e 92 31
e 92 32
e 92 33
e 92 36
e 92 41
e 92 43
e 92 45
e 92 47
e 92 48
e 92 51
e 92 54
e 92 56
e 92 57
e 92 59
e 92 60
e 92 61
e 92 62
e 92 71
e 92 72
e 92 73
e 92 74
e 92 75
e 92 76
e 92 77
e 92 78
e 92 79
e 92 81
e 92 84
e 92 88
e 92 90
e 95 1
e 95 2
e 95 3
e 95 4
e 95 5
e 95 6
e 95 7
e 95 8
e 95 9
e 95 10
e 95 11
e 95 12
e 95 13
e 95 14
e 95 15
e 95 16
e 95 17
e 95 47
e 95 71
e 95 72
e 95 73
e 95 74
e 95 75
e 95 76
e 95 77
e 95 78
e 95 79
e 95 81
e 95 84
e 95 88
e 95 90
e 95 92
e 97 1
e 97 2
e 97 3
e 97 4
e 97 5
e 97 6
e 97 7
e 97 8
e 97 9
e 97 10
e 97 11
e 97 12
e 97 13
e 97 14
e 97 15
e 97 16
e 97 17
e 97 47
e 97 71
e 97 72
e 97 73
e 97 74
e 97 75
e 97 76
e 97 77
e 97 78
e 97 79
e 97 81
e 97 84
e 97 88
e 97 90
e 97 92
e 103 1
e 103 2
e 103 3
e 103 11
e 103 12
e 103 13
e 103 14
e 103 15
e 103 16
e 103 17
e 103 18
e 103 19
e 103 20
e 103 21
e 103 22
e 103 23
e 103 24
e 103 25
e 103 26
e 103 27
e 103 28
e 103 29
e 103 30
e 103 31
e 103 32
e 103 63
e 103 64
e 103 65
e 103 66
e 103 67
e 103 68
e 103 69
e 103 70
e 103 80
e 103 83
e 103 86
e 103 87
e 106 1
e 106 2
e 106 3
e 106 4
e 106 5
e 106 6
e 106 7
e 106 8
e 106 9
e 106 10
e 106 11
e 106 12
e 106 13
e 106 14
e 106 15
e 106 16
e 106 17
e 106 27
e 106 28
e 106 29
e 106 30
e 106 31
e 106 32
e 106 33
e 106 36
e 106 41
e 106 43
e 106 45
e 106 48
e 106 51
e 106 54
e 106 56
e 106 57
e 106 59
e 106 60
e 106 61
e 106 62
e 106 71
e 106 72
e 106 73
e 106 74
e 106 75
e 106 76
e 106 77
e 106 78
e 106 79
e 106 81
e 106 84
e 106 88
e 106 90
e 106 92
e 113 1
e 113 2
e 113 3
e 113 4
e 113 5
e 113 6
e 113 7
e 113 8
e 113 9
e 113 10
e 113 11
e 113 12
e 113 13
e 113 14
e 113 15
e 113 16
e 113 17
e 113 27
e 113 33
e 113 36
e 113 41
e 113 43
e 113 45
e 113 48
e 113 51
e 113 54
e 113 59
e 113 71
e 113 72
e 113 73
e 113 74
e 113 75
e 113 76
e 113 77
e 113 78
e 113 79
e 113 81
e 113 84
e 113 88
e 113 90
e 113 92
e 113 106
e 114 1
e 114 2
e 114 3
e 114 4
e 114 5
e 114 6
e 114 7
e 114 8
e 114 9
e 114 10
e 114 11
e 114 12
e 114 13
e 114 14
e 114 15
e 114 16
e 114 17
e 114 27
e 114 33
e 114 36
e 114 41
e 114 43
e 114 45
e 114 48
e 114 51
e 114 54
e 114 71
e 114 72
e 114 73
e 114 74
e 114 75
e 114 76
e 114 77
e 114 78
e 114 79
e 114 81
e 114 84
e 114 88
e 114 90
e 114 92
e 114 106
e 121 1
e 121 2
e 121 3
e 121 4
e 121 5
e 121 6
e 121 7
e 121 8
e 121 9
e 121 10
e 121 11
e 121 12
e 121 13
e 121 14
e 121 15
e 121 16
e 121 17
e 121 27
e 121 33
e 121 36
e 121 41
e 121 43
e 121 45
e 121 48
e 121 51
e 121 54
e 121 71
e 121 72
e 121 73
e 121 74
e 121 75
e 121 76
e 121 77
e 121 78
e 121 79
e 121 81
e 121 84
e 121 88
e 121 90
e 121 92
e 121 106
e 124 1
e 124 2
e 124 3
e 124 4
e 124 5
e 124 6
e 124 7
e 124 8
e 124 9
e 124 10
e 124 11
e 124 12
e 124 13
e 124 14
e 124 15
e 124 16
e 124 17
e 124 27
e 124 33
e 124 36
e 124 41
e 124 43
e 124 45
e 124 48
e 124 51
e 124 54
e 124 56
e 124 57
e 124 59
e 124 60
e 124 61
e 124 62
e 124 71
e 124 72
e 124 73
e 124 74
e 124 75
e 124 76
e 124 77
e 124 78
e 124 79
e 124 81
e 124 84
e 124 88
e 124 90
e 124 92
e 124 106
e 126 1
e 126 2
e 126 3
e 126 4
e 126 5
e 126 6
e 126 7
e 126 8
e 126 9
e 126 10
e 126 11
e 126 12
e 126 13
e 126 14
e 126 15
e 126 16
e 126 17
e 126 27
e 126 33
e 126 36
e 126 41
e 126 43
e 126 45
e 126 48
e 126 51
e 126 54
e 126 60
e 126 61
e 126 71
e 126 72
e 126 73
e 126 74
e 126 75
e 126 76
e 126 77
e 126 78
e 126 79
e 126 81
e 126 84
e 126 88
e 126 90
e 126 92
e 126 106
e 126 124
e 129 1
e 129 2
e 129 3
e 129 4
e 129 5
e 129 6
e 129 7
e 129 8
e 129 9
e 129 10
e 129 11
e 129 12
e 129 13
e 129 14
e 129 15
e 129 16
e 129 17
e 129 27
e 129 33
e 129 36
e 129 41
e 129 43
e 129 45
e 129 48
e 129 51
e 129 54
e 129 61
e 129 62
e 129 71
e 129 72
e 129 73
e 129 74
e 129 75
e 129 76
e 129 77
e 129 78
e 129 79
e 129 81
e 129 84
e 129 88
e 129 90
e 129 92
e 129 106
e 129 124
e 132 1
e 132 2
e 132 3
e 132 4
e 132 5
e 132 6
e 132 7
e 132 8
e 132 9
e 132 10
e 132 11
e 132 12
e 132 13
e 132 14
e 132 15
e 132 16
e 132 17
e 132 27
e 132 33
e 132 36
e 132 41
e 132 43
e 132 45
e 132 48
e 132 51
e 132 54
e 132 56
e 132 57
e 132 59
e 132 62
e 132 71
e 132 72
e 132 73
e 132 74
e 132 75
e 132 76
e 132 77
e 132 78
e 132 79
e 132 81
e 132 84
e 132 88
e 132 90
e 132 92
e 132 106
e 132 124
e 134 1
e 134 2
e 134 3
e 134 4
e 134 5
e 134 6
e 134 7
e 134 8
e 134 9
e 134 10
e 134 11
e 134 12
e 134 13
e 134 14
e 134 15
e 134 16
e 134 17
e 134 27
e 134 33
e 134 36
e 134 41
e 134 43
e 134 45
e 134 48
e 134 51
e 134 54
e 134 62
e 134 71
e 134 72
e 134 73
e 134 74
e 134 75
e 134 76
e 134 77
e 134 78
e 134 79
e 134 81
e 134 84
e 134 88
e 134 90
e 134 92
e 134 106
e 134 124
e 134 132
e 135 1
e 135 2
e 135 3
e 135 4
e 135 5
e 135 6
e 135 7
e 135 8
e 135 9
e 135 10
e 135 11
e 135 12
e 135 13
e 135 14
e 135 15
e 135 16
e 135 17
e 135 27
e 135 33
e 135 36
e 135 41
e 135 43
e 135 45
e 135 48
e 135 51
e 135 54
e 135 62
e 135 71
e 135 72
e 135 73
e 135 74
e 135 75
e 135 76
e 135 77
e 135 78
e 135 79
e 135 81
e 135 84
e 135 88
e 135 90
e 135 92
e 135 106
e 135 124
e 135 132
e 140 1
e 140 2
e 140 3
e 140 4
e 140 5
e 140 6
e 140 7
e 140 8
e 140 9
e 140 10
e 140 11
e 140 12
e 140 13
e 140 14
e 140 15
e 140 16
e 140 17
e 140 27
e 140 28
e 140 29
e 140 30
e 140 31
e 140 32
e 140 33
e 140 36
e 140 41
e 140 43
e 140 45
e 140 48
e 140 51
e 140 54
e 140 56
e 140 57
e 140 59
e 140 62
e 140 71
e 140 72
e 140 73
e 140 74
e 140 75
e 140 76
e 140 77
e 140 78
e 140 79
e 140 81
e 140 84
e 140 88
e 140 90
e 140 92
e 140 106
e 140 124
e 140 132
e 141 1
e 141 2
e 141 3
e 141 4
e 141 5
e 141 6
e 141 7
e 141 8
e 141 9
e 141 10
e 141 11
e 141 12
e 141 13
e 141 14
e 141 15
e 141 16
e 141 17
e 141 27
e 141 33
e 141 36
e 141 41
e 141 43
e 141 45
e 141 48
e 141 51
e 141 54
e 141 59
e 141 62
e 141 71
e 141 72
e 141 73
e 141 74
e 141 75
e 141 76
e 141 77
e 141 78
e 141 79
e 141 81
e 141 84
e 141 88
e 141 90
e 141 92
e 141 106
e 141 124
e 141 132
e 141 140
e 142 1
e 142 2
e 142 3
e 142 4
e 142 5
e 142 6
e 142 7
e 142 8
e 142 9
e 142 10
e 142 11
e 142 12
e 142 13
e 142 14
e 142 15
e 142 16
e 142 17
e 142 27
e 142 33
e 142 36
e 142 41
e 142 43
e 142 45
e 142 48
e 142 51
e 142 54
e 142 59
e 142 62
e 142 71
e 142 72
e 142 73
e 142 74
e 142 75
e 142 76
e 142 77
e 142 78
e 142 79
e 142 81
e 142 84
e 142 88
e 142 90
e 142 92
e 142 106
e 142 124
e 142 132
e 142 140
e 145 1
e 145 2
e 145 3
e 145 4
e 145 5
e 145 6
e 145 7
e 145 8
e 145 9
e 145 10
e 145 11
e 145 12
e 145 13
e 145 14
e 145 15
e 145 16
e 145 17
e 145 27
e 145 33
e 145 36
e 145 41
e 145 43
e 145 45
e 145 48
e 145 54
e 145 59
e 145 62
e 145 71
e 145 72
e 145 73
e 145 74
e 145 75
e 145 76
e 145 77
e 145 78
e 145 79
e 145 81
e 145 84
e 145 88
e 145 90
e 145 92
e 145 106
e 145 132
e 145 140
e 146 1
e 146 2
e 146 3
e 146 4
e 146 5
e 146 6
e 146 7
e 146 8
e 146 9
e 146 10
e 146 11
e 146 12
e 146 13
e 146 14
e 146 15
e 146 16
e 146 17
e 146 27
e 146 33
e 146 36
e 146 41
e 146 43
e 146 45
e 146 48
e 146 54
e 146 59
e 146 62
e 146 71
e 146 72
e 146 73
e 146 74
e 146 75
e 146 76
e 146 77
e 146 78
e 146 79
e 146 81
e 146 84
e 146 88
e 146 90
e 146 92
e 146 106
e 146 132
e 146 140
e 149 1
e 149 2
e 149 3
e 149 4
e 149 5
e 149 6
e 149 7
e 149 8
e 149 9
e 149 10
e 149 11
e 149 12
e 149 13
e 149 14
e 149 15
e 149 16
e 149 17
e 149 27
e 149 33
e 149 36
e 149 41
e 149 43
e 149 45
e 149 48
e 149 51
e 149 54
e 149 59
e 149 71
e 149 72
e 149 73
e 149 74
e 149 75
e 149 76
e 149 77
e 149 78
e 149 79
e 149 81
e 149 84
e 149 88
e 149 90
e 149 92
e 149 106
e 159 1
e 159 2
e 159 3
e 159 4
e 159 5
e 159 6
e 159 7
e 159 8
e 159 9
e 159 10
e 159 11
e 159 12
e 159 13
e 159 14
e 159 15
e 159 16
e 159 17
e 159 27
e 159 33
e 159 36
e 159 41
e 159 43
e 159 45
e 159 48
e 159 51
e 159 54
e 159 59
e 159 62
e 159 71
e 159 72
e 159 73
e 159 74
e 159 75
e 159 76
e 159 77
e 159 78
e 159 79
e 159 81
e 159 84
e 159 88
e 159 90
e 159 92
e 159 106
e 159 124
e 159 132
e 159 140
e 160 1
e 160 2
e 160 3
e 160 4
e 160 5
e 160 6
e 160 7
e 160 8
e 160 9
e 160 10
e 160 11
e 160 12
e 160 13
e 160 14
e 160 15
e 160 16
e 160 17
e 160 27
e 160 33
e 160 36
e 160 41
e 160 43
e 160 45
e 160 48
e 160 51
e 160 54
e 160 59
e 160 62
e 160 71
e 160 72
e 160 73
e 160 74
e 160 75
e 160 76
e 160 77
e 160 78
e 160 79
e 160 81
e 160 84
e 160 88
e 160 90
e 160 92
e 160 106
e 160 124
e 160 132
e 160 140
e 160 159
e 161 1
e 161 2
e 161 3
e 161 4
e 161 5
e 161 6
e 161 7
e 161 8
e 161 9
e 161 10
e 161 11
e 161 12
e 161 13
e 161 14
e 161 15
e 161 16
e 161 17
e 161 27
e 161 33
e 161 36
e 161 41
e 161 43
e 161 45
e 161 48
e 161 51
e 161 54
e 161 59
e 161 62
e 161 71
e 161 72
e 161 73
e 161 74
e 161 75
e 161 76
e 161 77
e 161 78
e 161 79
e 161 81
e 161 84
e 161 88
e 161 90
e 161 92
e 161 106
e 161 124
e 161 132
e 161 140
e 162 1
e 162 2
e 162 3
e 162 4
e 162 5
e 162 6
e 162 7
e 162 8
e 162 9
e 162 10
e 162 11
e 162 12
e 162 13
e 162 14
e 162 15
e 162 16
e 162 17
e 162 27
e 162 33
e 162 36
e 162 41
e 162 43
e 162 45
e 162 48
e 162 51
e 162 54
e 162 56
e 162 57
e 162 59
e 162 62
e 162 71
e 162 72
e 162 73
e 162 74
e 162 75
e 162 76
e 162 77
e 162 78
e 162 79
e 162 81
e 162 84
e 162 88
e 162 90
e 162 92
e 162 106
e 162 124
e 162 132
e 162 140
e 163 1
e 163 2
e 163 3
e 163 4
e 163 5
e 163 6
e 163 7
e 163 8
e 163 9
e 163 10
e 163 11
e 163 12
e 163 13
e 163 14
e 163 15
e 163 16
e 163 17
e 163 27
e 163 33
e 163 36
e 163 41
e 163 43
e 163 45
e 163 48
e 163 51
e 163 54
e 163 59
e 163 62
e 163 71
e 163 72
e 163 73
e 163 74
e 163 75
e 163 76
e 163 77
e 163 78
e 163 79
e 163 81
e 163 84
e 163 88
e 163 90
e 163 92
e 163 106
e 163 124
e 163 132
e 163 140
e 163 162
e 164 1
e 164 2
e 164 3
e 164 4
e 164 5
e 164 6
e 164 7
e 164 8
e 164 9
e 164 10
e 164 11
e 164 12
e 164 13
e 164 14
e 164 15
e 164 16
e 164 17
e 164 27
e 164 36
e 164 41
e 164 43
e 164 45
e 164 51
e 164 54
e 164 56
e 164 59
e 164 62
e 164 71
e 164 72
e 164 73
e 164 74
e 164 75
e 164 76
e 164 77
e 164 78
e 164 79
e 164 81
e 164 84
e 164 88
e 164 90
e 164 92
e 164 106
e 164 124
e 164 132
e 164 140
e 164 162
e 166 1
e 166 2
e 166 3
e 166 4
e 166 5
e 166 6
e 166 7
e 166 8
e 166 9
e 166 10
e 166 11
e 166 12
e 166 13
e 166 14
e 166 15
e 166 16
e 166 17
e 166 27
e 166 36
e 166 41
e 166 43
e 166 45
e 166 51
e 166 54
e 166 59
e 166 62
e 166 71
e 166 72
e 166 73
e 166 74
e 166 75
e 166 76
e 166 77
e 166 78
e 166 79
e 166 81
e 166 84
e 166 88
e 166 90
e 166 92
e 166 106
e 166 124
e 166 132
e 166 140
e 166 162
e 166 164
e 172 1
e 172 2
e 172 3
e 172 4
e 172 5
e 172 6
e 172 7
e 172 8
e 172 9
e 172 10
e 172 11
e 172 12
e 172 13
e 172 14
e 172 15
e 172 16
e 172 17
e 172 27
e 172 36
e 172 41
e 172 43
e 172 45
e 172 51
e 172 54
e 172 57
e 172 59
e 172 62
e 172 71
e 172 72
e 172 73
e 172 74
e 172 75
e 172 76
e 172 77
e 172 78
e 172 79
e 172 81
e 172 84
e 172 88
e 172 90
e 172 92
e 172 106
e 172 124
e 172 132
e 172 140
e 172 162
e 174 1
e 174 2
e 174 3
e 174 4
e 174 5
e 174 6
e 174 7
e 174 8
e 174 9
e 174 10
e 174 11
e 174 12
e 174 13
e 174 14
e 174 15
e 174 16
e 174 17
e 174 27
e 174 36
e 174 41
e 174 43
e 174 45
e 174 51
e 174 54
e 174 57
e 174 59
e 174 62
e 174 71
e 174 72
e 174 73
e 174 74
e 174 75
e 174 76
e 174 77
e 174 78
e 174 79
e 174 81
e 174 84
e 174 88
e 174 90
e 174 92
e 174 106
e 174 124
e 174 132
e 174 140
e 174 162
e 174 172
e 175 1
e 175 2
e 175 3
e 175 4
e 175 5
e 175 6
e 175 7
e 175 8
e 175 9
e 175 10
e 175 11
e 175 12
e 175 13
e 175 14
e 175 15
e 175 16
e 175 17
e 175 27
e 175 36
e 175 41
e 175 43
e 175 45
e 175 51
e 175 54
e 175 57
e 175 59
e 175 62
e 175 71
e 175 72
e 175 73
e 175 74
e 175 75
e 175 76
e 175 77
e 175 78
e 175 79
e 175 81
e 175 84
e 175 88
e 175 90
e 175 92
e 175 106
e 175 124
e 175 132
e 175 140
e 175 172
e 175 174
e 176 1
e 176 2
e 176 3
e 176 4
e 176 5
e 176 6
e 176 7
e 176 8
e 176 9
e 176 10
e 176 11
e 176 12
e 176 13
e 176 14
e 176 15
e 176 16
e 176 17
e 176 27
e 176 36
e 176 41
e 176 43
e 176 45
e 176 51
e 176 54
e 176 57
e 176 59
e 176 62
e 176 71
e 176 72
e 176 73
e 176 74
e 176 75
e 176 76
e 176 77
e 176 78
e 176 79
e 176 81
e 176 84
e 176 88
e 176 90
e 176 92
e 176 106
e 176 124
e 176 132
e 176 140
e 176 172
e 176 174
e 177 1
e 177 2
e 177 3
e 177 4
e 177 5
e 177 6
e 177 7
e 177 8
e 177 9
e 177 10
e 177 11
e 177 12
e 177 13
e 177 14
e 177 15
e 177 16
e 177 17
e 177 27
e 177 36
e 177 41
e 177 43
e 177 45
e 177 51
e 177 54
e 177 57
e 177 59
e 177 62
e 177 71
e 177 72
e 177 73
e 177 74
e 177 75
e 177 76
e 177 77
e 177 78
e 177 79
e 177 81
e 177 84
e 177 88
e 177 90
e 177 92
e 177 106
e 177 124
e 177 132
e 177 140
e 177 172
e 177 174
e 177 176
e 178 1
e 178 2
e 178 3
e 178 4
e 178 5
e 178 6
e 178 7
e 178 8
e 178 9
e 178 10
e 178 11
e 178 12
e 178 13
e 178 14
e 178 15
e 178 16
e 178 17
e 178 27
e 178 36
e 178 41
e 178 43
e 178 45
e 178 51
e 178 54
e 178 57
e 178 59
e 178 62
e 178 71
e 178 72
e 178 73
e 178 74
e 178 75
e 178 76
e 178 77
e 178 78
e 178 79
e 178 81
e 178 84
e 178 88
e 178 90
e 178 92
e 178 106
e 178 124
e 178 132
e 178 140
e 178 172
e 178 174
e 178 176
e 179 1
e 179 2
e 179 3
e 179 4
e 179 5
e 179 6
e 179 7
e 179 8
e 179 9
e 179 10
e 179 11
e 179 12
e 179 13
e 179 14
e 179 15
e 179 16
e 179 17
e 179 27
e 179 36
e 179 41
e 179 43
e 179 45
e 179 51
e 179 54
e 179 57
e 179 59
e 179 62
e 179 71
e 179 72
e 179 73
e 179 74
e 179 75
e 179 76
e 179 77
e 179 78
e 179 79
e 179 81
e 179 84
e 179 88
e 179 90
e 179 92
e 179 106
e 179 124
e 179 132
e 179 140
e 179 172
e 179 174
e 180 1
e 180 2
e 180 3
e 180 4
e 180 5
e 180 6
e 180 7
e 180 8
e 180 9
e 180 10
e 180 11
e 180 12
e 180 13
e 180 14
e 180 15
e 180 16
e 180 17
e 180 27
e 180 36
e 180 41
e 180 43
e 180 45
e 180 51
e 180 54
e 180 57
e 180 59
e 180 62
e 180 71
e 180 72
e 180 73
e 180 74
e 180 75
e 180 76
e 180 77
e 180 78
e 180 79
e 180 81
e 180 84
e 180 88
e 180 90
e 180 92
e 180 106
e 180 124
e 180 132
e 180 140
e 180 172
e 181 1
e 181 2
e 181 3
e 181 4
e 181 5
e 181 6
e 181 7
e 181 8
e 181 9
e 181 10
e 181 11
e 181 12
e 181 13
e 181 14
e 181 15
e 181 16
e 181 17
e 181 27
e 181 36
e 181 41
e 181 43
e 181 51
e 181 54
e 181 57
e 181 59
e 181 62
e 181 71
e 181 72
e 181 73
e 181 74
e 181 75
e 181 76
e 181 77
e 181 78
e 181 79
e 181 81
e 181 84
e 181 88
e 181 90
e 181 92
e 181 106
e 181 132
e 181 140
e 181 172
e 182 1
e 182 2
e 182 3
e 182 4
e 182 5
e 182 6
e 182 7
e 182 8
e 182 9
e 182 10
e 182 11
e 182 12
e 182 13
e 182 14
e 182 15
e 182 16
e 182 17
e 182 27
e 182 36
e 182 41
e 182 43
e 182 51
e 182 54
e 182 57
e 182 59
e 182 62
e 182 71
e 182 72
e 182 73
e 182 74
e 182 75
e 182 76
e 182 77
e 182 78
e 182 79
e 182 81
e 182 84
e 182 88
e 182 90
e 182 92
e 182 106
e 182 132
e 182 140
e 182 172
e 183 1
e 183 2
e 183 3
e 183 4
e 183 5
e 183 6
e 183 7
e 183 8
e 183 9
e 183 10
e 183 11
e 183 12
e 183 13
e 183 14
e 183 15
e 183 16
e 183 17
e 183 27
e 183 36
e 183 41
e 183 43
e 183 51
e 183 54
e 183 57
e 183 59
e 183 62
e 183 71
e 183 72
e 183 73
e 183 74
e 183 75
e 183 76
e 183 77
e 183 78
e 183 79
e 183 81
e 183 84
e 183 88
e 183 90
e 183 92
e 183 106
e 183 132
e 183 140
e 183 172
e 184 1
e 184 2
e 184 3
e 184 4
e 184 5
e 184 6
e 184 7
e 184 8
e 184 9
e 184 10
e 184 11
e 184 12
e 184 13
e 184 14
e 184 15
e 184 16
e 184 17
e 184 27
e 184 36
e 184 41
e 184 43
e 184 51
e 184 54
e 184 57
e 184 59
e 184 62
e 184 71
e 184 72
e 184 73
e 184 74
e 184 75
e 184 76
e 184 77
e 184 78
e 184 79
e 184 81
e 184 84
e 184 88
e 184 90
e 184 92
e 184 106
e 184 132
e 184 140
e 184 172
e 190 1
e 190 2
e 190 3
e 190 4
e 190 5
e 190 6
e 190 7
e 190 8
e 190 9
e 190 10
e 190 11
e 190 12
e 190 13
e 190 14
e 190 15
e 190 16
e 190 17
e 190 27
e 190 36
e 190 41
e 190 43
e 190 45
e 190 48
e 190 51
e 190 54
e 190 59
e 190 62
e 190 71
e 190 72
e 190 73
e 190 74
e 190 75
e 190 76
e 190 77
e 190 78
e 190 79
e 190 81
e 190 84
e 190 88
e 190 90
e 190 92
e 190 106
e 190 124
e 190 132
e 190 140
e 190 162
e 191 1
e 191 2
e 191 3
e 191 4
e 191 5
e 191 6
e 191 7
e 191 8
e 191 9
e 191 10
e 191 11
e 191 12
e 191 13
e 191 14
e 191 15
e 191 16
e 191 17
e 191 27
e 191 36
e 191 41
e 191 43
e 191 45
e 191 48
e 191 51
e 191 54
e 191 56
e 191 59
e 191 62
e 191 71
e 191 72
e 191 73
e 191 74
e 191 75
e 191 76
e 191 77
e 191 78
e 191 79
e 191 81
e 191 84
e 191 88
e 191 90
e 191 92
e 191 106
e 191 124
e 191 132
e 191 140
e 191 162
e 191 190
e 193 1
e 193 2
e 193 3
e 193 4
e 193 5
e 193 6
e 193 7
e 193 8
e 193 9
e 193 10
e 193 11
e 193 12
e 193 13
e 193 14
e 193 15
e 193 16
e 193 17
e 193 27
e 193 36
e 193 41
e 193 43
e 193 45
e 193 48
e 193 51
e 193 54
e 193 59
e 193 62
e 193 71
e 193 72
e 193 73
e 193 74
e 193 75
e 193 76
e 193 77
e 193 78
e 193 79
e 193 81
e 193 84
e 193 88
e 193 90
e 193 92
e 193 106
e 193 124
e 193 132
e 193 140
e 193 162
e 193 190
e 193 191
e 195 1
e 195 2
e 195 3
e 195 4
e 195 5
e 195 6
e 195 7
e 195 8
e 195 9
e 195 10
e 195 11
e 195 12
e 195 13
e 195 14
e 195 15
e 195 16
e 195 17
e 195 27
e 195 36
e 195 41
e 195 43
e 195 45
e 195 51
e 195 54
e 195 56
e 195 59
e 195 62
e 195 71
e 195 72
e 195 73
e 195 74
e 195 75
e 195 76
e 195 77
e 195 78
e 195 79
e 195 81
e 195 84
e 195 88
e 195 90
e 195 92
e 195 106
e 195 124
e 195 132
e 195 140
e 195 162
e 195 190
e 195 191
e 195 193
e 197 1
e 197 2
e 197 3
e 197 4
e 197 5
e 197 6
e 197 7
e 197 8
e 197 9
e 197 10
e 197 11
e 197 12
e 197 13
e 197 14
e 197 15
e 197 16
e 197 17
e 197 27
e 197 36
e 197 41
e 197 43
e 197 45
e 197 51
e 197 54
e 197 59
e 197 62
e 197 71
e 197 72
e 197 73
e 197 74
e 197 75
e 197 76
e 197 77
e 197 78
e 197 79
e 197 81
e 197 84
e 197 88
e 197 90
e 197 92
e 197 106
e 197 124
e 197 132
e 197 140
e 197 162
e 197 190
e 197 191
e 197 193
e 197 195
e 198 1
e 198 2
e 198 3
e 198 4
e 198 5
e 198 6
e 198 7
e 198 8
e 198 9
e 198 10
e 198 11
e 198 12
e 198 13
e 198 14
e 198 15
e 198 16
e 198 17
e 198 27
e 198 36
e 198 41
e 198 43
e 198 45
e 198 51
e 198 54
e 198 59
e 198 62
e 198 71
e 198 72
e 198 73
e 198 74
e 198 75
e 198 76
e 198 77
e 198 78
e 198 79
e 198 81
e 198 84
e 198 88
e 198 90
e 198 92
e 198 106
e 198 124
e 198 132
e 198 140
e 198 162
e 198 190
e 198 191
e 198 193
e 198 195
e 199 1
e 199 2
e 199 3
e 199 4
e 199 5
e 199 6
e 199 7
e 199 8
e 199 9
e 199 10
e 199 11
e 199 12
e 199 13
e 199 14
e 199 15
e 199 16
e 199 17
e 199 27
e 199 36
e 199 41
e 199 43
e 199 45
e 199 51
e 199 54
e 199 59
e 199 62
e 199 71
e 199 72
e 199 73
e 199 74
e 199 75
e 199 76
e 199 77
e 199 78
e 199 79
e 199 81
e 199 84
e 199 88
e 199 90
e 199 92
e 199 106
e 199 124
e 199 132
e 199 140
e 199 162
e 199 190
e 199 191
e 199 193
e 199 195
e 199 198
e 200 1
e 200 2
e 200 3
e 200 4
e 200 5
e 200 6
e 200 7
e 200 8
e 200 9
e 200 10
e 200 11
e 200 12
e 200 13
e 200 14
e 200 15
e 200 16
e 200 17
e 200 27
e 200 36
e 200 41
e 200 43
e 200 45
e 200 51
e 200 54
e 200 59
e 200 62
e 200 71
e 200 72
e 200 73
e 200 74
e 200 75
e 200 76
e 200 77
e 200 78
e 200 79
e 200 81
e 200 84
e 200 88
e 200 90
e 200 92
e 200 106
e 200 124
e 200 132
e 200 140
e 200 162
e 200 190
e 200 191
e 200 193
e 200 195
e 201 1
e 201 2
e 201 3
e 201 4
e 201 5
e 201 6
e 201 7
e 201 8
e 201 9
e 201 10
e 201 11
e 201 12
e 201 13
e 201 14
e 201 15
e 201 16
e 201 17
e 201 27
e 201 36
e 201 41
e 201 43
e 201 45
e 201 51
e 201 54
e 201 56
e 201 59
e 201 62
e 201 71
e 201 72
e 201 73
e 201 74
e 201 75
e 201 76
e 201 77
e 201 78
e 201 79
e 201 81
e 201 84
e 201 88
e 201 90
e 201 92
e 201 106
e 201 124
e 201 132
e 201 140
e 201 162
e 201 190
e 201 191
e 201 195
e 201 200
e 202 1
e 202 2
e 202 3
e 202 4
e 202 5
e 202 6
e 202 7
e 202 8
e 202 9
e 202 10
e 202 11
e 202 12
e 202 13
e 202 14
e 202 15
e 202 16
e 202 17
e 202 27
e 202 36
e 202 41
e 202 43
e 202 45
e 202 51
e 202 54
e 202 59
e 202 62
e 202 71
e 202 72
e 202 73
e 202 74
e 202 75
e 202 76
e 202 77
e 202 78
e 202 79
e 202 81
e 202 84
e 202 88
e 202 90
e 202 92
e 202 106
e 202 124
e 202 132
e 202 140
e 202 162
e 202 191
e 202 195
e 202 200
e 202 201
e 203 1
e 203 2
e 203 3
e 203 4
e 203 5
e 203 6
e 203 7
e 203 8
e 203 9
e 203 10
e 203 11
e 203 12
e 203 13
e 203 14
e 203 15
e 203 16
e 203 17
e 203 27
e 203 36
e 203 41
e 203 43
e 203 45
e 203 51
e 203 54
e 203 59
e 203 62
e 203 71
e 203 72
e 203 73
e 203 74
e 203 75
e 203 76
e 203 77
e 203 78
e 203 79
e 203 81
e 203 84
e 203 88
e 203 90
e 203 92
e 203 106
e 203 124
e 203 132
e 203 140
e 203 162
e 203 191
e 203 195
e 203 201
e 206 1
e 206 2
e 206 3
e 206 4
e 206 5
e 206 6
e 206 7
e 206 8
e 206 9
e 206 10
e 206 11
e 206 12
e 206 13
e 206 14
e 206 15
e 206 16
e 206 17
e 206 27
e 206 36
e 206 41
e 206 43
e 206 45
e 206 51
e 206 54
e 206 56
e 206 59
e 206 62
e 206 71
e 206 72
e 206 73
e 206 74
e 206 75
e 206 76
e 206 77
e 206 78
e 206 79
e 206 81
e 206 84
e 206 88
e 206 90
e 206 92
e 206 106
e 206 124
e 206 132
e 206 140
e 206 162
e 206 195
e 206 201
e 207 1
e 207 2
e 207 3
e 207 4
e 207 5
e 207 6
e 207 7
e 207 8
e 207 9
e 207 10
e 207 11
e 207 12
e 207 13
e 207 14
e 207 15
e 207 16
e 207 17
e 207 27
e 207 36
e 207 41
e 207 43
e 207 45
e 207 51
e 207 54
e 207 56
e 207 59
e 207 62
e 207 71
e 207 72
e 207 73
e 207 74
e 207 75
e 207 76
e 207 77
e 207 78
e 207 79
e 207 81
e 207 84
e 207 88
e 207 90
e 207 92
e 207 106
e 207 124
e 207 132
e 207 140
e 207 162
e 207 195
e 208 1
e 208 2
e 208 3
e 208 4
e 208 5
e 208 6
e 208 7
e 208 8
e 208 9
e 208 10
e 208 11
e 208 12
e 208 13
e 208 14
e 208 15
e 208 16
e 208 17
e 208 27
e 208 36
e 208 41
e 208 43
e 208 45
e 208 51
e 208 54
e 208 56
e 208 59
e 208 62
e 208 71
e 208 72
e 208 73
e 208 74
e 208 75
e 208 76
e 208 77
e 208 78
e 208 79
e 208 81
e 208 84
e 208 88
e 208 90
e 208 92
e 208 106
e 208 124
e 208 132
e 208 140
e 208 162
e 208 207
e 211 1
e 211 2
e 211 3
e 211 4
e 211 5
e 211 6
e 211 7
e 211 8
e 211 9
e 211 10
e 211 11
e 211 12
e 211 13
e 211 14
e 211 15
e 211 16
e 211 17
e 211 27
e 211 33
e 211 36
e 211 41
e 211 43
e 211 45
e 211 48
e 211 51
e 211 54
e 211 71
e 211 72
e 211 73
e 211 74
e 211 75
e 211 76
e 211 77
e 211 78
e 211 79
e 211 81
e 211 84
e 211 88
e 211 90
e 211 92
e 211 106
